************************************************************************
file with basedata            : md288_.bas
initial value random generator: 104472477
************************************************************************
projects                      :  1
jobs (incl. supersource/sink ):  20
horizon                       :  135
RESOURCES
  - renewable                 :  2   R
  - nonrenewable              :  2   N
  - doubly constrained        :  0   D
************************************************************************
PROJECT INFORMATION:
pronr.  #jobs rel.date duedate tardcost  MPM-Time
    1     18      0       23       11       23
************************************************************************
PRECEDENCE RELATIONS:
jobnr.    #modes  #successors   successors
   1        1          3           2   3   4
   2        3          3           7  12  18
   3        3          3           6  10  14
   4        3          2           5  13
   5        3          3           8   9  12
   6        3          2           7  19
   7        3          1          11
   8        3          2          10  14
   9        3          2          16  17
  10        3          2          11  15
  11        3          1          17
  12        3          1          19
  13        3          3          14  15  17
  14        3          2          16  18
  15        3          2          16  18
  16        3          1          19
  17        3          1          20
  18        3          1          20
  19        3          1          20
  20        1          0        
************************************************************************
REQUESTS/DURATIONS:
jobnr. mode duration  R 1  R 2  N 1  N 2
------------------------------------------------------------------------
  1      1     0       0    0    0    0
  2      1     1       8    4    8    0
         2     2       6    4    7    0
         3     6       4    3    6    0
  3      1     1       5    3    0    7
         2     1       6    2    9    0
         3    10       5    1    1    0
  4      1     3       7    4    0   10
         2     6       6    2    0    6
         3     6       7    3    0    5
  5      1     2      10    5    8    0
         2     4       9    5    0    6
         3     9       9    4    7    0
  6      1     1       5    7    0    9
         2     3       4    6    0    9
         3     6       3    6    0    9
  7      1     3       9    9    0    8
         2     3       7    9    5    0
         3     8       3    8    2    0
  8      1     2       9    8    0    3
         2     4       7    5    0    3
         3     4       7    7    1    0
  9      1     1       4    4    0    2
         2     3       3    4    0    2
         3     7       3    3    0    1
 10      1     2       9    1    0    7
         2     3       5    1    6    0
         3     9       4    1    0    7
 11      1     2       9    4    9    0
         2     3       7    3    8    0
         3     4       7    3    6    0
 12      1     2       9    9    0    9
         2     6       8    5    5    0
         3     8       6    5    0    8
 13      1     1       9    2    6    0
         2     6       4    2    6    0
         3     9       3    1    0    3
 14      1     2       7    9    0    7
         2     7       6    8    0    4
         3     8       1    8    2    0
 15      1     4       9    7    0    4
         2     4       7    8    6    0
         3     6       5    4    4    0
 16      1     4       5    9    5    0
         2     7       4    9    5    0
         3     9       3    9    0    7
 17      1     3       4    8    5    0
         2     6       2    6    0    7
         3     9       2    4    5    0
 18      1     1       7    3    0    5
         2     7       6    3    0    4
         3     8       5    2    0    4
 19      1     6       9    8    3    0
         2     8       8    6    0    5
         3     9       8    5    3    0
 20      1     0       0    0    0    0
************************************************************************
RESOURCEAVAILABILITIES:
  R 1  R 2  N 1  N 2
   28   21   78   99
************************************************************************
